(set-info :smt-lib-version 2.6)
(set-logic LRA)
(set-info :source |
   Monniaux, David; Quantifier Elimination by Lazy Model Enumeration, CAV 2010
|)
(set-info :category "random")
; ./Mjollnir_examples/B6/formula_296.m
(set-info :status unsat)
(assert
 (forall ((|v17:0| Real) )(forall ((|v16:1| Real) )(forall ((|v15:2| Real) )(forall ((|v14:3| Real) )(forall ((|v13:4| Real) )(forall ((|v12:5| Real) )(exists ((|v11:6| Real) )(exists ((|v10:7| Real) )(exists ((|v9:8| Real) )(exists ((|v8:9| Real) )(exists ((|v7:10| Real) )(exists ((|v6:11| Real) )(forall ((|v5:12| Real) )(forall ((|v4:13| Real) )(forall ((|v3:14| Real) )(forall ((|v2:15| Real) )(forall ((|v1:16| Real) )(forall ((|v0:17| Real) )(let ((?x137 3))
(let ((?x164 11))
(let ((?x208 (* ?x164 |v10:7|)))
(let ((?x267 (+ (+ (* (- 6) |v12:5|) (* 2 |v1:16|)) (* (- 8) |v12:5|))))
(let ((?x274 (+ (+ (+ (+ ?x267 (* ?x137 |v6:11|)) ?x208) (* (- 17) |v9:8|)) (* 17 |v4:13|))))
(let ((?x86 17))
(let ((?x249 (+ (+ (* (- 16) |v16:1|) (* (- 9) |v12:5|)) (* (- 17) |v2:15|))))
(let ((?x254 (+ (+ (+ ?x249 (* (- 7) |v12:5|)) |v3:14|) (* 10 |v2:15|))))
(let ((?x230 (+ (+ (* (- 3) |v17:0|) (* 20 |v8:9|)) (* (- 15) |v12:5|))))
(let ((?x236 (+ (+ (+ ?x230 (* 0 |v10:7|)) (* 0 |v3:14|)) (* (- 16) |v11:6|))))
(let ((?x221 0))
(let ((?x214 (+ (+ (+ ?x208 (* 7 |v2:15|)) (* 20 |v1:16|)) (* 15 |v4:13|))))
(let ((?x220 (+ (+ (+ ?x214 (* ?x86 |v7:10|)) (* 19 |v10:7|)) (* (- 12) |v5:12|))))
(let (($x240 (or (<= ?x220 ?x221) (<= (+ ?x236 (* (- 9) |v15:2|)) 12))))
(let ((?x194 (- 9)))
(let ((?x193 (+ (+ (* 20 |v3:14|) (* 15 |v13:4|)) (* 6 |v1:16|))))
(let ((?x202 (+ (+ (+ ?x193 (* ?x194 |v1:16|)) (* ?x164 |v3:14|)) (* 7 |v9:8|))))
(let ((?x92 10))
(let ((?x174 (+ (+ (* (- 1) |v6:11|) (* (- 19) |v15:2|)) (* (- 17) |v8:9|))))
(let ((?x180 (+ (+ (+ ?x174 (* 9 |v7:10|)) (* (- 4) |v10:7|)) (* (- 13) |v14:3|))))
(let (($x206 (or (<= (+ ?x180 (* 18 |v0:17|)) ?x92) (<= (+ ?x202 (* (- 7) |v5:12|)) ?x194))))
(let ((?x19 (- 5)))
(let ((?x110 (* ?x19 |v6:11|)))
(let ((?x156 (+ (+ (* 9 |v3:14|) (* 18 |v14:3|)) (* 5 |v2:15|))))
(let ((?x163 (+ (+ (+ (+ ?x156 (* ?x92 |v6:11|)) (* 14 |v2:15|)) ?x110) (* (- 3) |v14:3|))))
(let ((?x24 2))
(let ((?x133 (+ (+ (* 20 |v10:7|) (* 13 |v5:12|)) (* (- 3) |v10:7|))))
(let ((?x141 (+ (+ (+ ?x133 (* (- 12) |v7:10|)) (* ?x137 |v14:3|)) (* (- 19) |v8:9|))))
(let ((?x116 (+ (+ (+ (* (- 11) |v3:14|) (* (- 19) |v16:1|)) ?x110) (* (- 3) |v9:8|))))
(let ((?x125 (+ (+ (+ ?x116 (* (- 1) |v8:9|)) (* 20 |v13:4|)) (* (- 12) |v15:2|))))
(let ((?x88 (+ (+ (* (- 2) |v7:10|) (* (- 16) |v12:5|)) (* ?x86 |v13:4|))))
(let ((?x98 (+ (+ (+ ?x88 (* (- 13) |v13:4|)) (* ?x92 |v12:5|)) (* (- 12) |v1:16|))))
(let (($x127 (and (<= (+ ?x98 (* 20 |v6:11|)) (- 4)) (<= ?x125 ?x19))))
(let (($x167 (or $x127 (or (<= (+ ?x141 (* 13 |v0:17|)) ?x24) (<= ?x163 ?x164)))))
(let ((?x55 (+ (+ (* (- 13) |v11:6|) (* 12 |v1:16|)) (* 13 |v2:15|))))
(let ((?x68 (+ (+ (+ ?x55 (* 19 |v7:10|)) (* (- 14) |v14:3|)) (* 8 |v15:2|))))
(let (($x243 (or (<= (+ ?x68 (* 20 |v11:6|)) 14) (or $x167 (or $x206 $x240)))))
(let ((?x21 (+ (+ (* (- 11) |v4:13|) (* 16 |v0:17|)) (* ?x19 |v14:3|))))
(let ((?x36 (+ (+ (+ ?x21 (* ?x24 |v10:7|)) (* (- 20) |v16:1|)) (* (- 7) |v7:10|))))
(let (($x258 (and (and (<= (+ ?x36 (* (- 11) |v16:1|)) 4) $x243) (<= (+ ?x254 (* ?x221 |v7:10|)) ?x86))))
(and $x258 (<= ?x274 ?x137)))))))))))))))))))))))))))))))))))))))))))
)
)
)
)
)
)
)
)
)
)
)
)
)
)
)
)
)
)
(check-sat)
(exit)

